(set-logic ALL)
(declare-fun seed0_T_1 () Int)
(declare-fun seed0_T_2 () Bool)
(declare-fun seed0_T_3 () Bool)
(declare-fun seed0_var_0xINPUT_29247 () String)
(assert (and (or (>= seed0_T_1 (str.len seed0_var_0xINPUT_29247)) (not (str.<= (str.++ seed0_var_0xINPUT_29247 "LenN") (str.++ seed0_var_0xINPUT_29247 "Y2BNAQ0CE")))) (or (= seed0_T_2 (= seed0_T_1 0)) (and (str.< (str.++ seed0_var_0xINPUT_29247 "ibh1") (str.++ seed0_var_0xINPUT_29247 "DVdK8eHtqSUEIzW")) (str.prefixof (str.++ seed0_var_0xINPUT_29247 "e") (str.++ seed0_var_0xINPUT_29247 "nlsmhKeVwuaS")))) (or (= seed0_T_3 (not seed0_T_2)) (and (<= (- seed0_T_1 840) (div seed0_T_1 seed0_T_1)) (> (div seed0_T_1 seed0_T_1) (mod seed0_T_1 seed0_T_1)))) (or seed0_T_3 (or (< (- seed0_T_1 (- 991)) (* seed0_T_1 seed0_T_1)) (>= (div seed0_T_1 seed0_T_1) (- seed0_T_1 68))))))
(check-sat)
(exit)